============================[ Problem Statistics ]=============================|                                                                             ||  Number of variables:          4242                                         ||  Number of clauses:           10473                                         ||  Parse time:                   0.85 s                                       ||                                                                             |============================[ Search Statistics ]==============================| Conflicts |          ORIGINAL         |          LEARNT          | Progress ||           |    Vars  Clauses Literals |    Limit  Clauses Lit/Cl |          |===============================================================================|       100 |    1591     6678  1372099 |     2448      100     53 | 62.501 % ||       250 |    1591     6678  1372099 |     2693      250     75 | 62.495 % |===============================================================================restarts              : 4conflicts             : 462            (360 /sec)decisions             : 821            (0.00 % random) (639 /sec)propagations          : 13770          (10724 /sec)conflict literals     : 39295          (94.44 % deleted)CPU time              : 1.284 sSATISFIABLE